(set-logic BV) (define-fun origCir ((n120 Bool) (n168 Bool) (n217 Bool) (n226 Bool) (i_26 Bool)) Bool (and (and (and (xor (xor (not n217) n168) n120) n226) (or n168 n120)) i_26)) (synth-fun skel ((n120 Bool) (n168 Bool) (n217 Bool) (n226 Bool) (i_26 Bool)) Bool) (declare-var n120 Bool) (declare-var n168 Bool) (declare-var n217 Bool) (declare-var n226 Bool) (declare-var i_26 Bool) (constraint (= (origCir n120 n168 n217 n226 i_26) (skel n120 n168 n217 n226 i_26))) (check-synth)
